
Starting CP-SAT solver v9.15.6755
Parameters: random_seed: 2026073268 max_time_in_seconds: 2500 log_search_progress: true cp_model_presolve: true linearization_level: 2 num_search_workers: 4 cp_model_probing_level: 2 symmetry_level: 2

Initial satisfaction model '': (model_fingerprint: 0x241fbcc9633b15f3)
#Variables: 724 (608 primary variables)
  - 724 Booleans in [0,1]
#kBoolAnd: 110 (#enforced: 110) (#literals: 330)
#kBoolOr: 110 (#enforced: 110) (#literals: 220)
#kExactlyOne: 87 (#literals: 261)
#kLinear1: 32 (#enforced: 6)
#kLinear2: 336 (#enforced: 336) (#complex_domain: 110)
#kLinear3: 1'600 (#enforced: 6)
#kLinearN: 1'132 (#enforced: 243) (#terms: 9'111)

Starting presolve at 0.00s
  6.65e-04s  0.00e+00d  [DetectDominanceRelations] 
  8.67e-03s  0.00e+00d  [PresolveToFixPoint] #num_loops=3 #num_dual_strengthening=1 
  3.41e-05s  0.00e+00d  [ExtractEncodingFromLinear] #potential_supersets=86 
  3.00e-04s  0.00e+00d  [DetectDuplicateColumns] 
  1.15e-04s  0.00e+00d  [DetectDuplicateConstraints] #duplicates=5 
[Symmetry] Graph for symmetry has 4'868 nodes and 15'706 arcs.
[Symmetry] Symmetry computation done. time: 0.00124743 dtime: 0.00180439
[SAT presolve] num removable Booleans: 220 / 626
[SAT presolve] num trivial clauses: 0
[SAT presolve] [0s] clauses:2'724 literals:7'408 vars:506 one_side_vars:66 simple_definition:1 singleton_clauses:0
[SAT presolve] [0.000216675s] clauses:2'723 literals:7'401 vars:506 one_side_vars:66 simple_definition:1 singleton_clauses:0
[SAT presolve] [0.000653812s] clauses:2'244 literals:6'597 vars:380 one_side_vars:73 simple_definition:65 singleton_clauses:0
  1.26e-04s  0.00e+00d  [DetectDuplicateConstraintsWithDifferentEnforcements] #without_enforcements=2 
  5.48e-03s  2.28e-03d  [Probe] #probed=1'316 #equiv=2 #new_binary_clauses=1'414 
  4.79e-04s  4.97e-04d  [MaxClique] Merged 585 constraints with 1'299 literals into 475 constraints with 1'139 literals
  8.33e-04s  0.00e+00d  [DetectDominanceRelations] 
  3.12e-03s  0.00e+00d  [PresolveToFixPoint] #num_loops=1 #num_dual_strengthening=1 
  1.20e-03s  0.00e+00d  [ProcessAtMostOneAndLinear] 
  9.71e-05s  0.00e+00d  [DetectDuplicateConstraints] 
  8.81e-05s  0.00e+00d  [DetectDuplicateConstraintsWithDifferentEnforcements] 
  5.98e-03s  1.53e-04d  [DetectDominatedLinearConstraints] #relevant_constraints=846 #num_inclusions=724 #num_redundant=7 
  1.20e-04s  0.00e+00d  [DetectDifferentVariables] 
  7.48e-04s  8.59e-05d  [ProcessSetPPC] #relevant_constraints=3'048 #num_inclusions=89 
  2.67e-04s  3.37e-05d  [TransformClausesToExactlyOne] #num_amos=530 #num_clauses=1'676 #num_checked=1'676 
  4.97e-05s  0.00e+00d  [DetectEncodedComplexDomains] 
  2.96e-05s  0.00e+00d  [FindAlmostIdenticalLinearConstraints] 
  9.42e-04s  1.51e-03d  [FindBigAtMostOneAndLinearOverlap] 
  1.40e-03s  1.01e-03d  [FindBigVerticalLinearOverlap] #blocks=10 #saved_nz=376 
  1.82e-04s  2.75e-04d  [FindBigHorizontalLinearOverlap] #linears=470 
  3.18e-04s  2.71e-05d  [MergeClauses] #num_collisions=21 #num_merges=21 #num_saved_literals=105 
  8.36e-04s  0.00e+00d  [DetectDominanceRelations] 
  3.11e-03s  0.00e+00d  [PresolveToFixPoint] #num_loops=2 #num_dual_strengthening=1 
  8.34e-04s  0.00e+00d  [DetectDominanceRelations] 
  2.97e-03s  0.00e+00d  [PresolveToFixPoint] #num_loops=1 #num_dual_strengthening=1 
  1.58e-04s  0.00e+00d  [DetectDuplicateColumns] 
  1.04e-04s  0.00e+00d  [DetectDuplicateConstraints] 
[Symmetry] Graph for symmetry has 4'417 nodes and 13'752 arcs.
[Symmetry] Symmetry computation done. time: 0.00099547 dtime: 0.00134908
[SAT presolve] num removable Booleans: 93 / 497
[SAT presolve] num trivial clauses: 0
[SAT presolve] [0s] clauses:2'126 literals:6'321 vars:467 one_side_vars:166 simple_definition:75 singleton_clauses:0
[SAT presolve] [0.000207027s] clauses:2'126 literals:6'142 vars:467 one_side_vars:207 simple_definition:67 singleton_clauses:0
[SAT presolve] [0.000280364s] clauses:2'119 literals:6'133 vars:464 one_side_vars:209 simple_definition:58 singleton_clauses:0
  1.58e-04s  0.00e+00d  [DetectDuplicateConstraintsWithDifferentEnforcements] 
  5.94e-03s  2.12e-03d  [Probe] #probed=1'316 #new_binary_clauses=1'368 
  4.62e-04s  5.06e-04d  [MaxClique] Merged 526 constraints with 1'192 literals into 521 constraints with 1'190 literals
  8.28e-04s  0.00e+00d  [DetectDominanceRelations] 
  3.01e-03s  0.00e+00d  [PresolveToFixPoint] #num_loops=1 #num_dual_strengthening=1 
  1.13e-03s  0.00e+00d  [ProcessAtMostOneAndLinear] 
  1.37e-04s  0.00e+00d  [DetectDuplicateConstraints] 
  9.48e-05s  0.00e+00d  [DetectDuplicateConstraintsWithDifferentEnforcements] 
  5.95e-04s  5.40e-05d  [DetectDominatedLinearConstraints] #relevant_constraints=844 #num_inclusions=307 
  1.40e-04s  0.00e+00d  [DetectDifferentVariables] 
  7.28e-04s  7.33e-05d  [ProcessSetPPC] #relevant_constraints=3'093 #num_inclusions=90 
  3.03e-04s  3.30e-05d  [TransformClausesToExactlyOne] #num_amos=522 #num_clauses=1'671 #num_checked=1'671 
  4.45e-05s  0.00e+00d  [DetectEncodedComplexDomains] 
  3.74e-05s  0.00e+00d  [FindAlmostIdenticalLinearConstraints] 
  8.19e-04s  1.08e-03d  [FindBigAtMostOneAndLinearOverlap] 
  1.19e-03s  8.91e-04d  [FindBigVerticalLinearOverlap] #blocks=1 #saved_nz=30 
  1.89e-04s  2.75e-04d  [FindBigHorizontalLinearOverlap] #linears=471 
  3.22e-04s  2.62e-05d  [MergeClauses] #num_collisions=77 #num_merges=77 #num_saved_literals=223 
  8.59e-04s  0.00e+00d  [DetectDominanceRelations] 
  3.13e-03s  0.00e+00d  [PresolveToFixPoint] #num_loops=2 #num_dual_strengthening=1 
  8.63e-04s  0.00e+00d  [DetectDominanceRelations] 
  3.11e-03s  0.00e+00d  [PresolveToFixPoint] #num_loops=1 #num_dual_strengthening=1 
  1.52e-04s  0.00e+00d  [DetectDuplicateColumns] 
  9.65e-05s  0.00e+00d  [DetectDuplicateConstraints] 
[Symmetry] Graph for symmetry has 4'354 nodes and 13'389 arcs.
[Symmetry] Symmetry computation done. time: 0.000896274 dtime: 0.00127791
[SAT presolve] num removable Booleans: 90 / 494
[SAT presolve] num trivial clauses: 0
[SAT presolve] [0s] clauses:2'111 literals:6'112 vars:464 one_side_vars:210 simple_definition:59 singleton_clauses:0
[SAT presolve] [0.000207518s] clauses:2'111 literals:6'112 vars:464 one_side_vars:210 simple_definition:59 singleton_clauses:0
[SAT presolve] [0.000272289s] clauses:2'111 literals:6'112 vars:464 one_side_vars:210 simple_definition:59 singleton_clauses:0
  1.43e-04s  0.00e+00d  [DetectDuplicateConstraintsWithDifferentEnforcements] 
  5.72e-03s  2.13e-03d  [Probe] #probed=1'316 #new_binary_clauses=1'367 
  4.59e-04s  5.02e-04d  [MaxClique] Merged 520 constraints with 1'180 literals into 519 constraints with 1'179 literals
  8.68e-04s  0.00e+00d  [DetectDominanceRelations] 
  3.11e-03s  0.00e+00d  [PresolveToFixPoint] #num_loops=1 #num_dual_strengthening=1 
  1.12e-03s  0.00e+00d  [ProcessAtMostOneAndLinear] 
  1.12e-04s  0.00e+00d  [DetectDuplicateConstraints] 
  1.18e-04s  0.00e+00d  [DetectDuplicateConstraintsWithDifferentEnforcements] 
  4.82e-04s  4.94e-05d  [DetectDominatedLinearConstraints] #relevant_constraints=845 #num_inclusions=275 
  1.49e-04s  0.00e+00d  [DetectDifferentVariables] 
  7.22e-04s  7.29e-05d  [ProcessSetPPC] #relevant_constraints=3'092 #num_inclusions=88 
  3.11e-04s  3.30e-05d  [TransformClausesToExactlyOne] #num_amos=519 #num_clauses=1'671 #num_checked=1'671 
  5.10e-05s  0.00e+00d  [DetectEncodedComplexDomains] 
  4.44e-05s  0.00e+00d  [FindAlmostIdenticalLinearConstraints] 
  7.97e-04s  1.04e-03d  [FindBigAtMostOneAndLinearOverlap] 
  1.20e-03s  8.79e-04d  [FindBigVerticalLinearOverlap] #blocks=2 #saved_nz=63 
  1.97e-04s  2.76e-04d  [FindBigHorizontalLinearOverlap] #linears=473 
  3.33e-04s  2.62e-05d  [MergeClauses] #num_collisions=77 #num_merges=77 #num_saved_literals=223 
  8.74e-04s  0.00e+00d  [DetectDominanceRelations] 
  3.17e-03s  0.00e+00d  [PresolveToFixPoint] #num_loops=2 #num_dual_strengthening=1 
  2.92e-05s  0.00e+00d  [MergeNoOverlap] 
  3.03e-05s  0.00e+00d  [MergeNoOverlap2D] 

Presolve summary:
  - 34 affine relations were detected.
  - rule 'TODO dual: only one blocking constraint?' was applied 954 times.
  - rule 'TODO dual: tighten at most one' was applied 8 times.
  - rule 'TODO linear inclusion: superset is equality' was applied 309 times.
  - rule 'affine: new relation' was applied 34 times.
  - rule 'at_most_one: transformed into max clique' was applied 3 times.
  - rule 'bool_or: implications' was applied 57 times.
  - rule 'bool_or: only one literal' was applied 12 times.
  - rule 'bool_or: removed enforcement literal' was applied 557 times.
  - rule 'deductions: 862 stored' was applied 1 time.
  - rule 'duplicate: merged rhs of linear constraint' was applied 4 times.
  - rule 'duplicate: removed constraint' was applied 5 times.
  - rule 'duplicate: removed enforced constraint' was applied 2 times.
  - rule 'enforcement: false literal' was applied 28 times.
  - rule 'enforcement: true literal' was applied 2 times.
  - rule 'exactly_one: removed literals' was applied 33 times.
  - rule 'exactly_one: satisfied' was applied 3 times.
  - rule 'exactly_one: singleton' was applied 3 times.
  - rule 'exactly_one: size two' was applied 30 times.
  - rule 'incompatible linear: add implication' was applied 144 times.
  - rule 'linear + amo: empty after processing' was applied 6 times.
  - rule 'linear + amo: extracted enforcement literal' was applied 54 times.
  - rule 'linear inclusion: redundant containing constraint' was applied 3 times.
  - rule 'linear inclusion: redundant included constraint' was applied 3 times.
  - rule 'linear inclusion: sparsify superset' was applied 1 time.
  - rule 'linear matrix: common vertical rectangle' was applied 13 times.
  - rule 'linear1: always true' was applied 2 times.
  - rule 'linear1: x in domain' was applied 26 times.
  - rule 'linear2: convert ax + by != cte to clauses' was applied 256 times.
  - rule 'linear2: convert implied ax + by == cte to clauses' was applied 114 times.
  - rule 'linear2: implied ax + by = cte has only one solution' was applied 8 times.
  - rule 'linear: always true' was applied 418 times.
  - rule 'linear: empty' was applied 5 times.
  - rule 'linear: enforcement literal in expression' was applied 4 times.
  - rule 'linear: extracted at most one (max)' was applied 1 time.
  - rule 'linear: fixed or dup variables' was applied 881 times.
  - rule 'linear: negative clause' was applied 1'293 times.
  - rule 'linear: negative reified and' was applied 78 times.
  - rule 'linear: never in domain' was applied 6 times.
  - rule 'linear: positive at most one' was applied 34 times.
  - rule 'linear: reduced variable domains' was applied 14 times.
  - rule 'linear: remapped using affine relations' was applied 26 times.
  - rule 'presolve: 66 unused variables removed.' was applied 1 time.
  - rule 'presolve: iteration' was applied 3 times.
  - rule 'probing: bool_or reduced to implication' was applied 21 times.
  - rule 'probing: simplified clauses' was applied 8 times.
  - rule 'setppc: bool_or in at_most_one' was applied 7 times.
  - rule 'setppc: removed dominated constraints' was applied 99 times.
  - rule 'variables: both boolean and its negation fix the same variable' was applied 2 times.
  - rule 'variables: detect half reified value encoding' was applied 4 times.

Presolved satisfaction model '': (model_fingerprint: 0x2967495fbf44850b)
#Variables: 505 (432 primary variables)
  - 494 Booleans in [0,1]
  - 11 in [0,2]
#kAtMostOne: 81 (#literals: 303)
#kBoolAnd: 264 (#enforced: 264) (#literals: 702)
#kBoolAndClauses: 77 (#enforced: 77 #multi: 77) (#literals: 377)
#kBoolOr: 1'517 (#literals: 4'632)
#kExactlyOne: 57 (#literals: 213)
#kLinearN: 847 (#enforced: 140) (#terms: 5'741)
[Symmetry] Graph for symmetry has 4'128 nodes and 13'326 arcs.
[Symmetry] Symmetry computation done. time: 0.000771502 dtime: 0.00125403

Preloading model.
#Model   0.10s var:505/505 constraints:2843/2843

Starting search at 0.10s with 4 workers.
3 full problem subsolvers: [default_lp, max_lp, no_lp]
1 first solution subsolver: [fj]
2 interleaved subsolvers: [feasibility_pump, rins/rens]
2 helper subsolvers: [neighborhood_helper, synchronization_agent]

#Model  42.42s var:504/505 constraints:2841/2843
#Model 160.71s var:503/505 constraints:2839/2843
#Model 202.00s var:502/505 constraints:2837/2843
#Model 308.12s var:501/505 constraints:2820/2843
#Model 977.81s var:485/505 constraints:2806/2843
#Model 997.96s var:484/505 constraints:2804/2843
#Model 1069.15s var:483/505 constraints:2787/2843
#Model 1135.45s var:480/505 constraints:2769/2843
#Model 1340.22s var:479/505 constraints:2751/2843
#Model 1908.13s var:478/505 constraints:2751/2843
#Model 2029.84s var:477/505 constraints:2734/2843

Task timing                   n [     min,      max]      avg      dev     time         n [     min,      max]      avg      dev    dtime
        'default_lp':         1 [  41.67m,   41.67m]   41.67m   0.00ns   41.67m         2 [  2.18ms,   42.80m]   21.40m   21.40m   42.80m
  'feasibility_pump':     12404 [720.69us, 159.81ms]   1.43ms   1.45ms   17.77s     12403 [283.43us, 140.41ms] 296.59us   1.26ms    3.68s
                'fj':      8471 [108.94ms, 219.82ms] 146.42ms  11.18ms   20.67m      8471 [100.00ms, 100.10ms] 100.01ms  11.24us   14.12m
            'max_lp':         1 [  41.67m,   41.67m]   41.67m   0.00ns   41.67m         2 [ 83.20ms,   50.18m]   25.09m   25.09m   50.18m
             'no_lp':         1 [  41.67m,   41.67m]   41.67m   0.00ns   41.67m         2 [  2.08ms,    1.45h]   43.49m   43.49m    1.45h
         'rins/rens':     10986 [810.34us, 230.92ms] 112.92ms  45.75ms   20.67m     10980 [116.68us, 100.45ms]  66.30ms  38.86ms   12.13m

Search stats     Bools   Conflicts    Branches  Restarts  BacktrackToRoot   Backtrack     BoolPropag  IntegerPropag
  'default_lp':    494     234'737   8'203'886     1'457        1'305'576   1'847'830     96'609'198     99'498'648
      'max_lp':    494     163'320  10'674'498       836        1'708'945   2'237'081    125'026'977    135'941'397
       'no_lp':    494  19'482'371  27'002'416    63'627          558'619  19'958'190  1'650'601'043    453'323'816

SAT formula      Fixed  Equiv  Total  VarLeft  BinaryClauses  PermanentClauses  TemporaryClauses
  'default_lp':     28      7    494      459          2'172            59'927            10'791
      'max_lp':     28      7    494      459          2'172            60'352             9'150
       'no_lp':     28      7    494      459          2'172           161'443            12'462

SAT stats        ClassicMinim   LitRemoved  LitRemovedBinary   LitLearned  LitForgotten   Subsumed
  'default_lp':       209'165    2'890'739         1'964'018    6'935'002     4'164'276     86'505
      'max_lp':       140'521    2'057'821         1'179'496    4'169'804     2'556'019     50'011
       'no_lp':    17'473'784  334'140'130       156'430'037  498'305'228   405'251'301  4'901'289

Vivification       Clauses   Decisions  LitTrue  Subsumed  LitRemoved  DecisionReused  Conflicts
  'default_lp':  1'353'737   7'637'453        2    18'518     214'712         401'051      2'073
      'max_lp':  1'760'102  10'147'969        1    20'026     226'668         464'996      2'135
       'no_lp':    424'135   3'526'043        0    26'360     365'380         110'836      1'829

Clause deletion    at_true  l_and_not(l)  to_binary  sub_conflict  sub_extra  sub_decisions  sub_eager  sub_vivify  sub_probing  sub_inpro  blocked  eliminated   forgotten    promoted   conflicts
    'default_lp':    6'461           403         11        84'989        555          2'379      1'516      18'518        5'895     15'158        0           0     114'942     457'869     234'737
        'max_lp':    4'872           444          9        49'412        404          1'078        599      20'026        5'052     12'307        0           0      86'311     333'384     163'320
         'no_lp':   11'265         1'337         11     4'810'995     41'437        194'288     90'294      26'360       13'527    126'780        0           0  14'002'597  44'915'701  19'482'371

Lp stats         Component  Iterations  AddedCuts  OPTIMAL  DUAL_F.  DUAL_U.
  'default_lp':          1  28'497'060    118'309  331'349        2  163'656
      'max_lp':          1  14'869'230    106'340   49'669  135'191   34'319

Lp dimension        Final dimension of first component
  'default_lp':   363 rows, 368 columns, 11356 entries
      'max_lp':  1165 rows, 505 columns, 15438 entries

Lp debug         CutPropag  CutEqPropag   Adjust  Overflow        Bad  BadScaling
  'default_lp':          0           98  163'655         0  3'018'180           0
      'max_lp':          0           27   34'301         0  2'950'649           0

Lp pool          Constraints  Updates  Simplif  Merged  Shortened  Split  Strengthened        Cuts/Call
  'default_lp':       10'131   27'220        0       0      1'863      0             0  118'309/263'146
      'max_lp':       12'524   41'374        0       2        669      0         2'401  106'340/258'217

Lp Cut            default_lp  max_lp
          CG_FF:       1'303     146
           CG_K:         717      14
          CG_KL:         538       6
           CG_R:       1'430      96
          CG_RB:          49      10
         CG_RBP:          15       5
         Clique:           -     295
             IB:         124      22
       MIR_1_FF:         779   1'025
        MIR_1_K:         219      31
       MIR_1_KL:         530      30
        MIR_1_R:         738     375
       MIR_1_RB:           1       3
      MIR_1_RBP:           1       -
      MIR_1_RLT:           -  10'880
       MIR_2_FF:         904     976
        MIR_2_K:         215     162
       MIR_2_KL:         441     122
        MIR_2_R:       1'107     895
       MIR_2_RB:           4       4
      MIR_2_RBP:          16       2
       MIR_3_FF:         381     292
        MIR_3_K:          77      36
       MIR_3_KL:         114      18
        MIR_3_R:         763     294
       MIR_3_RB:          14       1
      MIR_3_RBP:          11       5
       MIR_4_FF:         134     102
        MIR_4_K:          24      17
       MIR_4_KL:          30       7
        MIR_4_R:         683     235
       MIR_4_RB:          16       6
      MIR_4_RBP:          16       8
       MIR_5_FF:          46      35
        MIR_5_K:           6       5
       MIR_5_KL:           4       -
        MIR_5_R:         528     203
       MIR_5_RB:          15       9
      MIR_5_RBP:          15       7
       MIR_6_FF:          24      14
        MIR_6_K:           2       4
       MIR_6_KL:           1       1
        MIR_6_R:         405     211
       MIR_6_RB:          11       1
      MIR_6_RBP:           9       5
   ZERO_HALF_FF:         453     984
    ZERO_HALF_K:         143      53
   ZERO_HALF_KL:         140       8
    ZERO_HALF_R:     104'902  88'567
   ZERO_HALF_RB:          48      11
  ZERO_HALF_RBP:         163     102

LNS stats       Improv/Calls  Closed  Difficulty  TimeLimit
  'rins/rens':   10982/10982     50%    7.79e-01       0.10

LS stats                                    Batches  Restarts/Perturbs    LinMoves   GenMoves  CompoundMoves  Bactracks  WeightUpdates  ScoreComputed
                             'fj_restart':      520                109  13'778'380          0              0          0     14'177'819     39'430'143
                    'fj_restart_compound':      561                109           0  7'228'632        321'052  3'453'582         16'129    107'038'035
                'fj_restart_compound_obj':      551                108           0  6'982'427        285'557  3'348'217         16'732    104'675'376
            'fj_restart_compound_perturb':      361                121           0  4'524'661        275'106  2'124'562          9'073     68'804'785
        'fj_restart_compound_perturb_obj':      477                122           0  6'106'148        305'930  2'899'882         12'903     90'907'637
                       'fj_restart_decay':      449                120  16'643'905          0              0          0        688'187     11'039'896
              'fj_restart_decay_compound':      531                107           0  7'448'494      1'136'293  3'155'814          6'896    103'389'179
          'fj_restart_decay_compound_obj':      481                115           0  6'658'945      1'013'099  2'822'663          6'305     93'576'923
      'fj_restart_decay_compound_perturb':      621                114           0  8'782'423      1'337'825  3'722'016          8'106    120'890'624
  'fj_restart_decay_compound_perturb_obj':      333                109           0  4'520'269        677'215  1'921'239          4'386     64'603'064
                   'fj_restart_decay_obj':      387                118  14'349'910          0              0          0        593'476      9'493'129
               'fj_restart_decay_perturb':      443                127  16'436'335          0              0          0        678'216     10'856'014
           'fj_restart_decay_perturb_obj':      757                114  28'065'818          0              0          0      1'161'828     18'637'086
                         'fj_restart_obj':      803                119  21'224'601          0              0          0     21'307'411     57'706'824
                     'fj_restart_perturb':      782                138  21'012'698          0              0          0     21'528'120     59'964'791
                 'fj_restart_perturb_obj':      414                108  11'591'442          0              0          0     11'037'860     29'357'314

Solution repositories    Added  Queried  Synchro
    'alternative_path':      0        0        0
      'best_solutions':      0        0        0
   'fj solution hints':  1'850        0    1'850
        'lp solutions':  1'811   10'986    1'799
                'pump':      0        0

Improving bounds shared    Num  Sym
            'default_lp':   21    0
                'max_lp':    6    0
                 'no_lp':    1    0

Clauses shared    #Exported  #Imported  #BinaryRead  #BinaryTotal
   'default_lp':      4'800     85'121          194           194
       'max_lp':      4'684     85'043          194           194
        'no_lp':     82'228      9'876          194           194

LRAT_status: NA
CpSolverResponse summary:
status: UNKNOWN
objective: NA
best_bound: NA
integers: 368
booleans: 494
conflicts: 234737
branches: 8203886
propagations: 96609198
integer_propagations: 99498648
restarts: 1457
lp_iterations: 28497060
walltime: 2500.03
usertime: 2500.03
deterministic_time: 12376.2
gap_integral: 0

{
  "board_size": 22,
  "parity_proved": 0,
  "target": 34,
  "child_id": 1168,
  "child_count": 2640,
  "partition": "unknown_pair_x_diag_plus_twos_x_diag_minus_twos",
  "build_seconds": 0.07792162895202637,
  "workers": 4,
  "requested_seed": 2026073268,
  "effective_seed": 2026073268,
  "main_diagonal_pair": [
    3,
    4
  ],
  "pair_index": 57,
  "diag_plus_twos": 17,
  "diag_minus_twos": 16,
  "pair_excess": 0,
  "residual_certificate_slack": 112,
  "analytic_minimum_line_defect": 0,
  "analytic_defect_details": {
    "row_costs": {
      "12": 6,
      "13": 3,
      "14": 0,
      "15": 0,
      "16": 0,
      "17": 0
    },
    "column_costs": {
      "12": 6,
      "13": 3,
      "14": 0,
      "15": 0,
      "16": 0,
      "17": 0
    },
    "plus_cost": 0,
    "minus_cost": 0,
    "row_column_minimum": 0
  },
  "maximal_line_constraints": 2455,
  "analytic_infeasible": false,
  "allowed_points": 242,
  "status": "UNKNOWN",
  "proof_method": "cp_sat_all_lines_with_certificate_profile_cuts",
  "elapsed_seconds": 2500.0313391685486,
  "branches": 8203886,
  "conflicts": 234737
}
